AME : levi30_17
COMMENT : 30: 36x20 -city problem (levikoppenhol)
TYPE : TSP
DIMENSION : 30
EDGE_WEIGHT_TYPE : EUC_2D
NODE_COORD_SECTION
1 8 14
2 13 11
3 5 6
4 13 9
5 8 33
6 10 32
7 15 1
8 2 2
9 20 1
10 8 27
11 4 34
12 4 10
13 9 21
14 16 33
15 7 35
16 5 10
17 13 9
18 12 9
19 4 18
20 15 22
21 15 15
22 17 18
23 3 0
24 14 16
25 2 18
26 17 7
27 8 33
28 9 18
29 15 36
30 8 31
EOF